7

0   19   6   5   7   19   20
19   0   24   7   22   15   8
6   24   0   4   17   17   0
5   7   4   0   21   8   3
7   22   17   21   0   8   2
19   15   17   8   8   0   11
20   8   0   3   2   11   0

0   40   43   29   49   36   7
40   0   13   17   33   22   39
43   13   0   14   20   9   42
29   17   14   0   20   7   28
49   33   20   20   0   13   48
36   22   9   7   13   0   35
7   39   42   28   48   35   0